1 1 1
2 2 1
3 2 2
4 29 30
5 30 30
6 28 30
7 28 29
8 2 29
9 3 29
10 4 29
11 3 28
12 4 28
13 4 27
14 3 16
15 3 15
16 4 16
17 5 16
18 16 23
19 17 23
20 16 22
21 17 22
22 17 21
23 27 4
24 28 4
25 27 3
26 28 3
27 28 2
28 30 20
29 30 19
30 30 18 